<number of tasks>
50

<cycle time>
1000

<order strength>
0.198


<task times>
1 426
2 483
3 467
4 487
5 410
6 573
7 370
8 534
9 522
10 387
11 450
12 448
13 404
14 457
15 553
16 649
17 409
18 763
19 660
20 313
21 334
22 772
23 502
24 525
25 720
26 370
27 392
28 593
29 432
30 422
31 445
32 412
33 334
34 439
35 748
36 797
37 568
38 740
39 493
40 619
41 594
42 344
43 598
44 654
45 578
46 404
47 540
48 495
49 272
50 662

<precedence relations>
1,9
2,8
2,23
2,30
3,10
3,19
4,11
5,12
5,42
6,35
7,12
7,35
8,14
9,13
10,15
11,16
12,17
12,18
12,19
12,30
13,20
14,21
15,22
16,23
19,26
19,44
20,24
21,25
22,26
22,27
22,28
22,30
23,29
24,33
25,34
26,31
27,32
29,35
29,36
30,49
31,38
32,39
33,40
34,41
35,37
35,42
36,43
36,44
36,45
37,46
38,48
39,48
40,47
42,49
43,49
45,50

<end>
